NAME : n150w60.003.793.tour
COMMENT : Length = 793
COMMENT : Found by LKH [Keld Helsgaun] Tue May  2 05:18:31 2017
TYPE : TOUR
DIMENSION : 151
TOUR_SECTION
1
91
87
128
11
95
114
138
127
105
89
50
97
144
28
25
75
124
38
68
39
45
20
31
37
84
66
64
143
32
73
130
149
67
41
22
148
121
126
108
47
74
60
132
136
146
116
103
72
17
111
18
58
139
112
62
133
79
82
110
49
35
100
3
88
46
26
137
48
56
5
30
129
86
134
51
7
102
53
131
83
14
122
98
135
19
54
109
43
23
57
142
76
65
34
147
13
6
118
70
42
55
29
27
33
81
93
15
145
77
107
9
61
12
59
36
10
80
117
24
71
4
52
16
99
119
123
96
69
101
150
125
115
106
94
113
21
40
85
8
78
141
92
104
120
63
90
2
151
140
44
-1
EOF
